** written by FreeCAD inp file writer for CalculiX,Abaqus meshes
** FEM mesh elements only (edges if they do not belong to faces and faces if they do not belong to volumes).

** Nodes
*Node, NSET=Nall
1, 0, 0, 0
2, 1, 0, 0
3, 1, 1, 0
4, 0, 1, 0
5, 0, 0, 1
6, 1, 0, 1
7, 1, 1, 1
8, 0, 1, 1
9, 0, 0, 0
10, 1, 0, 0
11, 1, 1, 0
12, 0, 1, 0


** Volume elements
*Element, TYPE=C3D8, ELSET=Evolumes
1, 6, 7, 8, 5, 2, 3, 4, 1

** Face elements
*Element, TYPE=S4, ELSET=Efaces
2, 9, 10, 11, 12

** Define element set Eall
*ELSET, ELSET=Eall
Evolumes, Efaces


